AES/1_5_4/ssaes_r1-20_c5_rw1_e4_f0_k1-20_aes_canon_box_aes_mc_bidirectional/ExperimentMinisat_r13_k1cnf_2011-10-29-155148/Result
WARNING: for repeatability, setting FPU to use double precision
============================[ Problem Statistics ]=============================
|                                                                             |
|  Number of variables:          2452                                         |
|  Number of clauses:           14510                                         |
|  Parse time:                   0.01 s                                       |
|  Eliminated clauses:           0.02 Mb                                      |
|  Simplification time:          0.01 s                                       |
|                                                                             |
=============================[ Search Statistics ]==============================
| Conflicts  |          ORIGINAL         |          LEARNT          | Progress |
|            |    Vars  Clauses Literals |    Limit  Clauses Lit/Cl |          |
================================================================================
|        100 |    2002    13194    40946 |     4837      100     31 |  3.752 % |
|        250 |    2002    13194    40946 |     5321      250     42 |  3.752 % |
|        475 |    2002    13194    40946 |     5853      475     41 |  3.752 % |
|        812 |    2002    13194    40946 |     6439      812     39 |  3.752 % |
|       1318 |    2002    13194    40946 |     7083     1318     39 |  3.752 % |
|       2077 |    2002    13194    40946 |     7791     2077     39 |  3.752 % |
|       3216 |    2002    13194    40946 |     8570     3216     37 |  3.752 % |
|       4924 |    2002    13194    40946 |     9427     4924     38 |  3.752 % |
|       7486 |    2002    13194    40946 |    10370     7486     37 |  3.752 % |
|      11330 |    2002    13194    40946 |    11407     6047     33 |  3.752 % |
|      17096 |    2002    13194    40946 |    12548     6018     29 |  3.752 % |
|      25745 |    2002    13194    40946 |    13802     8321     31 |  3.752 % |
|      38719 |    2002    13194    40946 |    15183     7275     27 |  3.752 % |
|      58180 |    2002    13194    40946 |    16701    11349     30 |  3.752 % |
|      87372 |    2002    13194    40946 |    18371    15196     29 |  3.752 % |
|     131161 |    2002    13194    40946 |    20208    12525     28 |  3.752 % |
|     196845 |    2002    13194    40946 |    22229    17047     27 |  3.752 % |
|     295371 |    2002    13194    40946 |    24452    14840     24 |  3.752 % |
|     443160 |    2002    13194    40946 |    26897    14807     26 |  3.752 % |
|     664843 |    2002    13194    40946 |    29587    19893     27 |  3.752 % |
|     997368 |    2002    13194    40946 |    32546    24806     25 |  3.752 % |
|    1496156 |    2002    13194    40946 |    35800    26014     28 |  3.752 % |
|    2244338 |    2002    13194    40946 |    39381    31628     26 |  3.752 % |
|    3366612 |    2002    13194    40946 |    43319    20555     23 |  3.752 % |
===============================================================================
restarts              : 8188
conflicts             : 4612491        (5060 /sec)
decisions             : 5008594        (0.00 % random) (5495 /sec)
propagations          : 4800610744     (5266747 /sec)
conflict literals     : 133505423      (66.49 % deleted)
Memory used           : 24.00 MB
CPU time              : 911.494 s

SATISFIABLE
